c CNF file corresponding to a (partial) station packing problem.
p cnf 4307 229
1 2 3 4 5 6 7 8 9 10 11 12 13 14 0
-1 -2 0
-1 -3 0
-1 -4 0
-1 -5 0
-1 -6 0
-1 -7 0
-1 -8 0
-1 -9 0
-1 -10 0
-1 -11 0
-1 -12 0
-1 -13 0
-1 -14 0
-2 -3 0
-2 -4 0
-2 -5 0
-2 -6 0
-2 -7 0
-2 -8 0
-2 -9 0
-2 -10 0
-2 -11 0
-2 -12 0
-2 -13 0
-2 -14 0
-3 -4 0
-3 -5 0
-3 -6 0
-3 -7 0
-3 -8 0
-3 -9 0
-3 -10 0
-3 -11 0
-3 -12 0
-3 -13 0
-3 -14 0
-4 -5 0
-4 -6 0
-4 -7 0
-4 -8 0
-4 -9 0
-4 -10 0
-4 -11 0
-4 -12 0
-4 -13 0
-4 -14 0
-5 -6 0
-5 -7 0
-5 -8 0
-5 -9 0
-5 -10 0
-5 -11 0
-5 -12 0
-5 -13 0
-5 -14 0
-6 -7 0
-6 -8 0
-6 -9 0
-6 -10 0
-6 -11 0
-6 -12 0
-6 -13 0
-6 -14 0
-7 -8 0
-7 -9 0
-7 -10 0
-7 -11 0
-7 -12 0
-7 -13 0
-7 -14 0
-8 -9 0
-8 -10 0
-8 -11 0
-8 -12 0
-8 -13 0
-8 -14 0
-9 -10 0
-9 -11 0
-9 -12 0
-9 -13 0
-9 -14 0
-10 -11 0
-10 -12 0
-10 -13 0
-10 -14 0
-11 -12 0
-11 -13 0
-11 -14 0
-12 -13 0
-12 -14 0
-13 -14 0
4291 4292 4293 4294 4295 4296 4297 4298 4299 4300 4301 4302 4303 4304 4305 4306 4307 0
-4291 -4292 0
-4291 -4293 0
-4291 -4294 0
-4291 -4295 0
-4291 -4296 0
-4291 -4297 0
-4291 -4298 0
-4291 -4299 0
-4291 -4300 0
-4291 -4301 0
-4291 -4302 0
-4291 -4303 0
-4291 -4304 0
-4291 -4305 0
-4291 -4306 0
-4291 -4307 0
-4292 -4293 0
-4292 -4294 0
-4292 -4295 0
-4292 -4296 0
-4292 -4297 0
-4292 -4298 0
-4292 -4299 0
-4292 -4300 0
-4292 -4301 0
-4292 -4302 0
-4292 -4303 0
-4292 -4304 0
-4292 -4305 0
-4292 -4306 0
-4292 -4307 0
-4293 -4294 0
-4293 -4295 0
-4293 -4296 0
-4293 -4297 0
-4293 -4298 0
-4293 -4299 0
-4293 -4300 0
-4293 -4301 0
-4293 -4302 0
-4293 -4303 0
-4293 -4304 0
-4293 -4305 0
-4293 -4306 0
-4293 -4307 0
-4294 -4295 0
-4294 -4296 0
-4294 -4297 0
-4294 -4298 0
-4294 -4299 0
-4294 -4300 0
-4294 -4301 0
-4294 -4302 0
-4294 -4303 0
-4294 -4304 0
-4294 -4305 0
-4294 -4306 0
-4294 -4307 0
-4295 -4296 0
-4295 -4297 0
-4295 -4298 0
-4295 -4299 0
-4295 -4300 0
-4295 -4301 0
-4295 -4302 0
-4295 -4303 0
-4295 -4304 0
-4295 -4305 0
-4295 -4306 0
-4295 -4307 0
-4296 -4297 0
-4296 -4298 0
-4296 -4299 0
-4296 -4300 0
-4296 -4301 0
-4296 -4302 0
-4296 -4303 0
-4296 -4304 0
-4296 -4305 0
-4296 -4306 0
-4296 -4307 0
-4297 -4298 0
-4297 -4299 0
-4297 -4300 0
-4297 -4301 0
-4297 -4302 0
-4297 -4303 0
-4297 -4304 0
-4297 -4305 0
-4297 -4306 0
-4297 -4307 0
-4298 -4299 0
-4298 -4300 0
-4298 -4301 0
-4298 -4302 0
-4298 -4303 0
-4298 -4304 0
-4298 -4305 0
-4298 -4306 0
-4298 -4307 0
-4299 -4300 0
-4299 -4301 0
-4299 -4302 0
-4299 -4303 0
-4299 -4304 0
-4299 -4305 0
-4299 -4306 0
-4299 -4307 0
-4300 -4301 0
-4300 -4302 0
-4300 -4303 0
-4300 -4304 0
-4300 -4305 0
-4300 -4306 0
-4300 -4307 0
-4301 -4302 0
-4301 -4303 0
-4301 -4304 0
-4301 -4305 0
-4301 -4306 0
-4301 -4307 0
-4302 -4303 0
-4302 -4304 0
-4302 -4305 0
-4302 -4306 0
-4302 -4307 0
-4303 -4304 0
-4303 -4305 0
-4303 -4306 0
-4303 -4307 0
-4304 -4305 0
-4304 -4306 0
-4304 -4307 0
-4305 -4306 0
-4305 -4307 0
-4306 -4307 0
